nK = 1923;
nT = 8;
nI = 21;
L = 29;
TT = 393;
np = 1;
nc = 3;
b = [55, 58, 53, 61, 23, 49, 69, 54, 32, 54, 53, 57, 32, 24, 53, 64, 26, 37, 32, 59, 36];
d = [93, 87, 138, 104, 125, 81, 124, 135, 80, 100, 140, 91, 49, 41, 92, 141, 139, 103, 73, 101, 135];
m = [2.2, 1.4, 1, 2.1, 1.2, 2.5, 1.6, 1.3, 1, 2.1, 1.8, 1.8, 1.4, 1.9, 2.5, 1.3, 2.5, 1.3, 1.8, 1.6, 1.8];
pt = [0.27, 0.2, 0.25, 0.21, 0.28, 0.25, 0.35, 0.28];
st = [14.85, 8.4, 12.25, 8.4, 14, 10, 20.65, 15.96];
arc = {<1, 0, 1, 1, 0, 0, 0, [1, 1, 1, 1, 1, 1, 1, 1]>, <2, 1, 2, 1, 0, 0, 0, [1, 1, 1, 1, 1, 1, 1, 1]>, <3, 2, 3, 1, 0, 0, 0, [1, 1, 1, 1, 1, 1, 1, 1]>, <4, 3, 4, 1, 0, 0, 0, [1, 1, 1, 1, 1, 1, 1, 1]>, <5, 4, 5, 1, 0, 0, 0, [1, 1, 1, 1, 1, 1, 1, 1]>, <6, 5, 6, 1, 0, 0, 0, [1, 1, 1, 1, 1, 1, 1, 1]>, <7, 6, 7, 1, 0, 0, 0, [1, 1, 1, 1, 1, 1, 1, 1]>, <8, 7, 8, 1, 0, 0, 0, [1, 1, 1, 1, 1, 1, 1, 1]>, <9, 8, 9, 1, 0, 0, 0, [1, 1, 1, 1, 1, 1, 1, 1]>, <10, 9, 10, 1, 0, 0, 0, [1, 1, 1, 1, 1, 1, 1, 1]>, <11, 10, 11, 1, 0, 0, 0, [1, 1, 1, 1, 1, 1, 1, 1]>, <12, 11, 12, 1, 0, 0, 0, [1, 1, 1, 1, 1, 1, 1, 1]>, <13, 12, 13, 1, 0, 0, 0, [1, 1, 1, 1, 1, 1, 1, 1]>, <14, 13, 14, 1, 0, 0, 0, [1, 1, 1, 1, 1, 1, 1, 1]>, <15, 14, 15, 1, 0, 0, 0, [1, 1, 1, 1, 1, 1, 1, 1]>, <16, 15, 16, 1, 0, 0, 0, [1, 1, 1, 1, 1, 1, 1, 1]>, <17, 16, 17, 1, 0, 0, 0, [1, 1, 1, 1, 1, 1, 1, 1]>, <18, 17, 18, 1, 0, 0, 0, [1, 1, 1, 1, 1, 1, 1, 1]>, <19, 18, 19, 1, 0, 0, 0, [1, 1, 1, 1, 1, 1, 1, 1]>, <20, 19, 20, 1, 0, 0, 0, [1, 1, 1, 1, 1, 1, 1, 1]>, <21, 20, 21, 1, 0, 0, 0, [1, 1, 1, 1, 1, 1, 1, 1]>, <22, 21, 22, 1, 0, 0, 0, [1, 1, 1, 1, 1, 1, 1, 1]>, <23, 22, 23, 1, 0, 0, 0, [1, 1, 1, 1, 1, 1, 1, 1]>, <24, 23, 24, 1, 0, 0, 0, [1, 1, 1, 1, 1, 1, 1, 1]>, <25, 24, 25, 1, 0, 0, 0, [1, 1, 1, 1, 1, 1, 1, 1]>, <26, 25, 26, 1, 0, 0, 0, [1, 1, 1, 1, 1, 1, 1, 1]>, <27, 26, 27, 1, 0, 0, 0, [1, 1, 1, 1, 1, 1, 1, 1]>, <28, 27, 28, 1, 0, 0, 0, [1, 1, 1, 1, 1, 1, 1, 1]>, <29, 28, 29, 1, 0, 0, 0, [1, 1, 1, 1, 1, 1, 1, 1]>, <30, 2, 12, 10, 1, 0, 1, [0, 0, 0, 0, 1, 1, 0, 0]>, <31, 3, 13, 10, 1, 0, 1, [0, 0, 0, 0, 1, 1, 0, 0]>, <32, 4, 14, 10, 1, 0, 1, [0, 0, 0, 0, 1, 1, 0, 0]>, <33, 5, 15, 10, 1, 0, 1, [0, 0, 0, 0, 1, 1, 0, 0]>, <34, 10, 20, 10, 1, 0, 1, [0, 0, 0, 0, 1, 1, 0, 0]>, <35, 11, 21, 10, 1, 0, 1, [0, 0, 0, 0, 1, 1, 0, 0]>, <36, 12, 22, 10, 1, 0, 1, [0, 0, 0, 0, 1, 1, 0, 0]>, <37, 14, 24, 10, 1, 0, 1, [0, 0, 0, 0, 1, 1, 0, 0]>, <38, 15, 25, 10, 1, 0, 1, [0, 0, 0, 0, 1, 1, 0, 0]>, <39, 16, 26, 10, 1, 0, 1, [0, 0, 0, 0, 1, 1, 0, 0]>, <40, 17, 27, 10, 1, 0, 1, [0, 0, 0, 0, 1, 1, 0, 0]>, <41, 18, 28, 10, 1, 0, 1, [0, 0, 0, 0, 1, 1, 0, 0]>, <42, 19, 29, 10, 1, 0, 1, [0, 0, 0, 0, 1, 1, 0, 0]>, <43, 2, 12, 10, 2, 1, 0, [1, 0, 0, 0, 0, 0, 0, 1]>, <44, 3, 13, 10, 2, 1, 0, [1, 0, 0, 0, 0, 0, 0, 1]>, <45, 4, 14, 10, 2, 1, 0, [1, 0, 0, 0, 0, 0, 0, 1]>, <46, 5, 15, 10, 2, 1, 0, [1, 0, 0, 0, 0, 0, 0, 1]>, <47, 10, 20, 10, 2, 1, 0, [1, 0, 0, 0, 0, 0, 0, 1]>, <48, 11, 21, 10, 2, 1, 0, [1, 0, 0, 0, 0, 0, 0, 1]>, <49, 12, 22, 10, 2, 1, 0, [1, 0, 0, 0, 0, 0, 0, 1]>, <50, 14, 24, 10, 2, 1, 0, [1, 0, 0, 0, 0, 0, 0, 1]>, <51, 15, 25, 10, 2, 1, 0, [1, 0, 0, 0, 0, 0, 0, 1]>, <52, 16, 26, 10, 2, 1, 0, [1, 0, 0, 0, 0, 0, 0, 1]>, <53, 17, 27, 10, 2, 1, 0, [1, 0, 0, 0, 0, 0, 0, 1]>, <54, 18, 28, 10, 2, 1, 0, [1, 0, 0, 0, 0, 0, 0, 1]>, <55, 19, 29, 10, 2, 1, 0, [1, 0, 0, 0, 0, 0, 0, 1]>, <56, 4, 12, 8, 3, 1, 0, [1, 0, 0, 0, 0, 0, 0, 1]>, <57, 5, 13, 8, 3, 1, 0, [1, 0, 0, 0, 0, 0, 0, 1]>, <58, 11, 19, 8, 3, 1, 0, [1, 0, 0, 0, 0, 0, 0, 1]>, <59, 12, 20, 8, 3, 1, 0, [1, 0, 0, 0, 0, 0, 0, 1]>, <60, 16, 24, 8, 3, 1, 0, [1, 0, 0, 0, 0, 0, 0, 1]>, <61, 17, 25, 8, 3, 1, 0, [1, 0, 0, 0, 0, 0, 0, 1]>, <62, 18, 26, 8, 3, 1, 0, [1, 0, 0, 0, 0, 0, 0, 1]>, <63, 19, 27, 8, 3, 1, 0, [1, 0, 0, 0, 0, 0, 0, 1]>, <64, 20, 28, 8, 3, 1, 0, [1, 0, 0, 0, 0, 0, 0, 1]>, <65, 2, 12, 10, 4, 1, 0, [0, 0, 0, 0, 0, 1, 1, 0]>, <66, 3, 13, 10, 4, 1, 0, [0, 0, 0, 0, 0, 1, 1, 0]>, <67, 4, 14, 10, 4, 1, 0, [0, 0, 0, 0, 0, 1, 1, 0]>, <68, 5, 15, 10, 4, 1, 0, [0, 0, 0, 0, 0, 1, 1, 0]>, <69, 10, 20, 10, 4, 1, 0, [0, 0, 0, 0, 0, 1, 1, 0]>, <70, 11, 21, 10, 4, 1, 0, [0, 0, 0, 0, 0, 1, 1, 0]>, <71, 12, 22, 10, 4, 1, 0, [0, 0, 0, 0, 0, 1, 1, 0]>, <72, 14, 24, 10, 4, 1, 0, [0, 0, 0, 0, 0, 1, 1, 0]>, <73, 15, 25, 10, 4, 1, 0, [0, 0, 0, 0, 0, 1, 1, 0]>, <74, 16, 26, 10, 4, 1, 0, [0, 0, 0, 0, 0, 1, 1, 0]>, <75, 17, 27, 10, 4, 1, 0, [0, 0, 0, 0, 0, 1, 1, 0]>, <76, 18, 28, 10, 4, 1, 0, [0, 0, 0, 0, 0, 1, 1, 0]>, <77, 19, 29, 10, 4, 1, 0, [0, 0, 0, 0, 0, 1, 1, 0]>, <78, 1, 12, 11, 5, 1, 0, [0, 0, 0, 1, 1, 0, 0, 0]>, <79, 2, 13, 11, 5, 1, 0, [0, 0, 0, 1, 1, 0, 0, 0]>, <80, 3, 14, 11, 5, 1, 0, [0, 0, 0, 1, 1, 0, 0, 0]>, <81, 4, 15, 11, 5, 1, 0, [0, 0, 0, 1, 1, 0, 0, 0]>, <82, 5, 16, 11, 5, 1, 0, [0, 0, 0, 1, 1, 0, 0, 0]>, <83, 9, 20, 11, 5, 1, 0, [0, 0, 0, 1, 1, 0, 0, 0]>, <84, 10, 21, 11, 5, 1, 0, [0, 0, 0, 1, 1, 0, 0, 0]>, <85, 11, 22, 11, 5, 1, 0, [0, 0, 0, 1, 1, 0, 0, 0]>, <86, 12, 23, 11, 5, 1, 0, [0, 0, 0, 1, 1, 0, 0, 0]>, <87, 13, 24, 11, 5, 1, 0, [0, 0, 0, 1, 1, 0, 0, 0]>, <88, 14, 25, 11, 5, 1, 0, [0, 0, 0, 1, 1, 0, 0, 0]>, <89, 15, 26, 11, 5, 1, 0, [0, 0, 0, 1, 1, 0, 0, 0]>, <90, 16, 27, 11, 5, 1, 0, [0, 0, 0, 1, 1, 0, 0, 0]>, <91, 17, 28, 11, 5, 1, 0, [0, 0, 0, 1, 1, 0, 0, 0]>, <92, 18, 29, 11, 5, 1, 0, [0, 0, 0, 1, 1, 0, 0, 0]>, <93, 4, 11, 7, 6, 0, 1, [0, 0, 0, 0, 1, 1, 0, 0]>, <94, 5, 12, 7, 6, 0, 1, [0, 0, 0, 0, 1, 1, 0, 0]>, <95, 11, 18, 7, 6, 0, 1, [0, 0, 0, 0, 1, 1, 0, 0]>, <96, 12, 19, 7, 6, 0, 1, [0, 0, 0, 0, 1, 1, 0, 0]>, <97, 17, 24, 7, 6, 0, 1, [0, 0, 0, 0, 1, 1, 0, 0]>, <98, 18, 25, 7, 6, 0, 1, [0, 0, 0, 0, 1, 1, 0, 0]>, <99, 19, 26, 7, 6, 0, 1, [0, 0, 0, 0, 1, 1, 0, 0]>, <100, 20, 27, 7, 6, 0, 1, [0, 0, 0, 0, 1, 1, 0, 0]>, <101, 0, 12, 12, 7, 0, 0, [1, 0, 0, 0, 0, 0, 0, 1]>, <102, 1, 13, 12, 7, 0, 0, [1, 0, 0, 0, 0, 0, 0, 1]>, <103, 2, 14, 12, 7, 0, 0, [1, 0, 0, 0, 0, 0, 0, 1]>, <104, 3, 15, 12, 7, 0, 0, [1, 0, 0, 0, 0, 0, 0, 1]>, <105, 4, 16, 12, 7, 0, 0, [1, 0, 0, 0, 0, 0, 0, 1]>, <106, 5, 17, 12, 7, 0, 0, [1, 0, 0, 0, 0, 0, 0, 1]>, <107, 8, 20, 12, 7, 0, 0, [1, 0, 0, 0, 0, 0, 0, 1]>, <108, 9, 21, 12, 7, 0, 0, [1, 0, 0, 0, 0, 0, 0, 1]>, <109, 10, 22, 12, 7, 0, 0, [1, 0, 0, 0, 0, 0, 0, 1]>, <110, 11, 23, 12, 7, 0, 0, [1, 0, 0, 0, 0, 0, 0, 1]>, <111, 12, 24, 12, 7, 0, 0, [1, 0, 0, 0, 0, 0, 0, 1]>, <112, 13, 25, 12, 7, 0, 0, [1, 0, 0, 0, 0, 0, 0, 1]>, <113, 14, 26, 12, 7, 0, 0, [1, 0, 0, 0, 0, 0, 0, 1]>, <114, 15, 27, 12, 7, 0, 0, [1, 0, 0, 0, 0, 0, 0, 1]>, <115, 16, 28, 12, 7, 0, 0, [1, 0, 0, 0, 0, 0, 0, 1]>, <116, 17, 29, 12, 7, 0, 0, [1, 0, 0, 0, 0, 0, 0, 1]>, <117, 4, 12, 8, 8, 0, 1, [1, 0, 0, 0, 0, 0, 0, 1]>, <118, 5, 13, 8, 8, 0, 1, [1, 0, 0, 0, 0, 0, 0, 1]>, <119, 11, 19, 8, 8, 0, 1, [1, 0, 0, 0, 0, 0, 0, 1]>, <120, 12, 20, 8, 8, 0, 1, [1, 0, 0, 0, 0, 0, 0, 1]>, <121, 16, 24, 8, 8, 0, 1, [1, 0, 0, 0, 0, 0, 0, 1]>, <122, 17, 25, 8, 8, 0, 1, [1, 0, 0, 0, 0, 0, 0, 1]>, <123, 18, 26, 8, 8, 0, 1, [1, 0, 0, 0, 0, 0, 0, 1]>, <124, 19, 27, 8, 8, 0, 1, [1, 0, 0, 0, 0, 0, 0, 1]>, <125, 20, 28, 8, 8, 0, 1, [1, 0, 0, 0, 0, 0, 0, 1]>, <126, 3, 12, 9, 9, 1, 0, [1, 1, 0, 0, 0, 0, 0, 0]>, <127, 4, 13, 9, 9, 1, 0, [1, 1, 0, 0, 0, 0, 0, 0]>, <128, 5, 14, 9, 9, 1, 0, [1, 1, 0, 0, 0, 0, 0, 0]>, <129, 11, 20, 9, 9, 1, 0, [1, 1, 0, 0, 0, 0, 0, 0]>, <130, 12, 21, 9, 9, 1, 0, [1, 1, 0, 0, 0, 0, 0, 0]>, <131, 15, 24, 9, 9, 1, 0, [1, 1, 0, 0, 0, 0, 0, 0]>, <132, 16, 25, 9, 9, 1, 0, [1, 1, 0, 0, 0, 0, 0, 0]>, <133, 17, 26, 9, 9, 1, 0, [1, 1, 0, 0, 0, 0, 0, 0]>, <134, 18, 27, 9, 9, 1, 0, [1, 1, 0, 0, 0, 0, 0, 0]>, <135, 19, 28, 9, 9, 1, 0, [1, 1, 0, 0, 0, 0, 0, 0]>, <136, 20, 29, 9, 9, 1, 0, [1, 1, 0, 0, 0, 0, 0, 0]>, <137, 2, 12, 10, 10, 0, 1, [0, 0, 0, 0, 0, 1, 1, 0]>, <138, 3, 13, 10, 10, 0, 1, [0, 0, 0, 0, 0, 1, 1, 0]>, <139, 4, 14, 10, 10, 0, 1, [0, 0, 0, 0, 0, 1, 1, 0]>, <140, 5, 15, 10, 10, 0, 1, [0, 0, 0, 0, 0, 1, 1, 0]>, <141, 10, 20, 10, 10, 0, 1, [0, 0, 0, 0, 0, 1, 1, 0]>, <142, 11, 21, 10, 10, 0, 1, [0, 0, 0, 0, 0, 1, 1, 0]>, <143, 12, 22, 10, 10, 0, 1, [0, 0, 0, 0, 0, 1, 1, 0]>, <144, 14, 24, 10, 10, 0, 1, [0, 0, 0, 0, 0, 1, 1, 0]>, <145, 15, 25, 10, 10, 0, 1, [0, 0, 0, 0, 0, 1, 1, 0]>, <146, 16, 26, 10, 10, 0, 1, [0, 0, 0, 0, 0, 1, 1, 0]>, <147, 17, 27, 10, 10, 0, 1, [0, 0, 0, 0, 0, 1, 1, 0]>, <148, 18, 28, 10, 10, 0, 1, [0, 0, 0, 0, 0, 1, 1, 0]>, <149, 19, 29, 10, 10, 0, 1, [0, 0, 0, 0, 0, 1, 1, 0]>, <150, 4, 12, 8, 11, 0, 1, [0, 0, 0, 1, 1, 0, 0, 0]>, <151, 5, 13, 8, 11, 0, 1, [0, 0, 0, 1, 1, 0, 0, 0]>, <152, 11, 19, 8, 11, 0, 1, [0, 0, 0, 1, 1, 0, 0, 0]>, <153, 12, 20, 8, 11, 0, 1, [0, 0, 0, 1, 1, 0, 0, 0]>, <154, 16, 24, 8, 11, 0, 1, [0, 0, 0, 1, 1, 0, 0, 0]>, <155, 17, 25, 8, 11, 0, 1, [0, 0, 0, 1, 1, 0, 0, 0]>, <156, 18, 26, 8, 11, 0, 1, [0, 0, 0, 1, 1, 0, 0, 0]>, <157, 19, 27, 8, 11, 0, 1, [0, 0, 0, 1, 1, 0, 0, 0]>, <158, 20, 28, 8, 11, 0, 1, [0, 0, 0, 1, 1, 0, 0, 0]>, <159, 1, 12, 11, 12, 0, 0, [0, 0, 0, 0, 1, 1, 0, 0]>, <160, 2, 13, 11, 12, 0, 0, [0, 0, 0, 0, 1, 1, 0, 0]>, <161, 3, 14, 11, 12, 0, 0, [0, 0, 0, 0, 1, 1, 0, 0]>, <162, 4, 15, 11, 12, 0, 0, [0, 0, 0, 0, 1, 1, 0, 0]>, <163, 5, 16, 11, 12, 0, 0, [0, 0, 0, 0, 1, 1, 0, 0]>, <164, 9, 20, 11, 12, 0, 0, [0, 0, 0, 0, 1, 1, 0, 0]>, <165, 10, 21, 11, 12, 0, 0, [0, 0, 0, 0, 1, 1, 0, 0]>, <166, 11, 22, 11, 12, 0, 0, [0, 0, 0, 0, 1, 1, 0, 0]>, <167, 12, 23, 11, 12, 0, 0, [0, 0, 0, 0, 1, 1, 0, 0]>, <168, 13, 24, 11, 12, 0, 0, [0, 0, 0, 0, 1, 1, 0, 0]>, <169, 14, 25, 11, 12, 0, 0, [0, 0, 0, 0, 1, 1, 0, 0]>, <170, 15, 26, 11, 12, 0, 0, [0, 0, 0, 0, 1, 1, 0, 0]>, <171, 16, 27, 11, 12, 0, 0, [0, 0, 0, 0, 1, 1, 0, 0]>, <172, 17, 28, 11, 12, 0, 0, [0, 0, 0, 0, 1, 1, 0, 0]>, <173, 18, 29, 11, 12, 0, 0, [0, 0, 0, 0, 1, 1, 0, 0]>, <174, 2, 12, 10, 13, 0, 0, [0, 1, 1, 0, 0, 0, 0, 0]>, <175, 3, 13, 10, 13, 0, 0, [0, 1, 1, 0, 0, 0, 0, 0]>, <176, 4, 14, 10, 13, 0, 0, [0, 1, 1, 0, 0, 0, 0, 0]>, <177, 5, 15, 10, 13, 0, 0, [0, 1, 1, 0, 0, 0, 0, 0]>, <178, 10, 20, 10, 13, 0, 0, [0, 1, 1, 0, 0, 0, 0, 0]>, <179, 11, 21, 10, 13, 0, 0, [0, 1, 1, 0, 0, 0, 0, 0]>, <180, 12, 22, 10, 13, 0, 0, [0, 1, 1, 0, 0, 0, 0, 0]>, <181, 14, 24, 10, 13, 0, 0, [0, 1, 1, 0, 0, 0, 0, 0]>, <182, 15, 25, 10, 13, 0, 0, [0, 1, 1, 0, 0, 0, 0, 0]>, <183, 16, 26, 10, 13, 0, 0, [0, 1, 1, 0, 0, 0, 0, 0]>, <184, 17, 27, 10, 13, 0, 0, [0, 1, 1, 0, 0, 0, 0, 0]>, <185, 18, 28, 10, 13, 0, 0, [0, 1, 1, 0, 0, 0, 0, 0]>, <186, 19, 29, 10, 13, 0, 0, [0, 1, 1, 0, 0, 0, 0, 0]>, <187, 0, 12, 12, 14, 0, 1, [0, 0, 1, 1, 0, 0, 0, 0]>, <188, 1, 13, 12, 14, 0, 1, [0, 0, 1, 1, 0, 0, 0, 0]>, <189, 2, 14, 12, 14, 0, 1, [0, 0, 1, 1, 0, 0, 0, 0]>, <190, 3, 15, 12, 14, 0, 1, [0, 0, 1, 1, 0, 0, 0, 0]>, <191, 4, 16, 12, 14, 0, 1, [0, 0, 1, 1, 0, 0, 0, 0]>, <192, 5, 17, 12, 14, 0, 1, [0, 0, 1, 1, 0, 0, 0, 0]>, <193, 8, 20, 12, 14, 0, 1, [0, 0, 1, 1, 0, 0, 0, 0]>, <194, 9, 21, 12, 14, 0, 1, [0, 0, 1, 1, 0, 0, 0, 0]>, <195, 10, 22, 12, 14, 0, 1, [0, 0, 1, 1, 0, 0, 0, 0]>, <196, 11, 23, 12, 14, 0, 1, [0, 0, 1, 1, 0, 0, 0, 0]>, <197, 12, 24, 12, 14, 0, 1, [0, 0, 1, 1, 0, 0, 0, 0]>, <198, 13, 25, 12, 14, 0, 1, [0, 0, 1, 1, 0, 0, 0, 0]>, <199, 14, 26, 12, 14, 0, 1, [0, 0, 1, 1, 0, 0, 0, 0]>, <200, 15, 27, 12, 14, 0, 1, [0, 0, 1, 1, 0, 0, 0, 0]>, <201, 16, 28, 12, 14, 0, 1, [0, 0, 1, 1, 0, 0, 0, 0]>, <202, 17, 29, 12, 14, 0, 1, [0, 0, 1, 1, 0, 0, 0, 0]>, <203, 4, 11, 7, 15, 0, 0, [0, 0, 0, 1, 1, 0, 0, 0]>, <204, 5, 12, 7, 15, 0, 0, [0, 0, 0, 1, 1, 0, 0, 0]>, <205, 11, 18, 7, 15, 0, 0, [0, 0, 0, 1, 1, 0, 0, 0]>, <206, 12, 19, 7, 15, 0, 0, [0, 0, 0, 1, 1, 0, 0, 0]>, <207, 17, 24, 7, 15, 0, 0, [0, 0, 0, 1, 1, 0, 0, 0]>, <208, 18, 25, 7, 15, 0, 0, [0, 0, 0, 1, 1, 0, 0, 0]>, <209, 19, 26, 7, 15, 0, 0, [0, 0, 0, 1, 1, 0, 0, 0]>, <210, 20, 27, 7, 15, 0, 0, [0, 0, 0, 1, 1, 0, 0, 0]>, <211, 4, 12, 8, 16, 0, 0, [0, 1, 1, 0, 0, 0, 0, 0]>, <212, 5, 13, 8, 16, 0, 0, [0, 1, 1, 0, 0, 0, 0, 0]>, <213, 11, 19, 8, 16, 0, 0, [0, 1, 1, 0, 0, 0, 0, 0]>, <214, 12, 20, 8, 16, 0, 0, [0, 1, 1, 0, 0, 0, 0, 0]>, <215, 16, 24, 8, 16, 0, 0, [0, 1, 1, 0, 0, 0, 0, 0]>, <216, 17, 25, 8, 16, 0, 0, [0, 1, 1, 0, 0, 0, 0, 0]>, <217, 18, 26, 8, 16, 0, 0, [0, 1, 1, 0, 0, 0, 0, 0]>, <218, 19, 27, 8, 16, 0, 0, [0, 1, 1, 0, 0, 0, 0, 0]>, <219, 20, 28, 8, 16, 0, 0, [0, 1, 1, 0, 0, 0, 0, 0]>, <220, 3, 12, 9, 17, 0, 1, [0, 0, 0, 0, 1, 1, 0, 0]>, <221, 4, 13, 9, 17, 0, 1, [0, 0, 0, 0, 1, 1, 0, 0]>, <222, 5, 14, 9, 17, 0, 1, [0, 0, 0, 0, 1, 1, 0, 0]>, <223, 11, 20, 9, 17, 0, 1, [0, 0, 0, 0, 1, 1, 0, 0]>, <224, 12, 21, 9, 17, 0, 1, [0, 0, 0, 0, 1, 1, 0, 0]>, <225, 15, 24, 9, 17, 0, 1, [0, 0, 0, 0, 1, 1, 0, 0]>, <226, 16, 25, 9, 17, 0, 1, [0, 0, 0, 0, 1, 1, 0, 0]>, <227, 17, 26, 9, 17, 0, 1, [0, 0, 0, 0, 1, 1, 0, 0]>, <228, 18, 27, 9, 17, 0, 1, [0, 0, 0, 0, 1, 1, 0, 0]>, <229, 19, 28, 9, 17, 0, 1, [0, 0, 0, 0, 1, 1, 0, 0]>, <230, 20, 29, 9, 17, 0, 1, [0, 0, 0, 0, 1, 1, 0, 0]>, <231, 4, 12, 8, 18, 0, 0, [0, 0, 0, 0, 0, 1, 1, 0]>, <232, 5, 13, 8, 18, 0, 0, [0, 0, 0, 0, 0, 1, 1, 0]>, <233, 11, 19, 8, 18, 0, 0, [0, 0, 0, 0, 0, 1, 1, 0]>, <234, 12, 20, 8, 18, 0, 0, [0, 0, 0, 0, 0, 1, 1, 0]>, <235, 16, 24, 8, 18, 0, 0, [0, 0, 0, 0, 0, 1, 1, 0]>, <236, 17, 25, 8, 18, 0, 0, [0, 0, 0, 0, 0, 1, 1, 0]>, <237, 18, 26, 8, 18, 0, 0, [0, 0, 0, 0, 0, 1, 1, 0]>, <238, 19, 27, 8, 18, 0, 0, [0, 0, 0, 0, 0, 1, 1, 0]>, <239, 20, 28, 8, 18, 0, 0, [0, 0, 0, 0, 0, 1, 1, 0]>, <240, 0, 12, 12, 19, 0, 1, [0, 0, 0, 0, 0, 1, 1, 0]>, <241, 1, 13, 12, 19, 0, 1, [0, 0, 0, 0, 0, 1, 1, 0]>, <242, 2, 14, 12, 19, 0, 1, [0, 0, 0, 0, 0, 1, 1, 0]>, <243, 3, 15, 12, 19, 0, 1, [0, 0, 0, 0, 0, 1, 1, 0]>, <244, 4, 16, 12, 19, 0, 1, [0, 0, 0, 0, 0, 1, 1, 0]>, <245, 5, 17, 12, 19, 0, 1, [0, 0, 0, 0, 0, 1, 1, 0]>, <246, 8, 20, 12, 19, 0, 1, [0, 0, 0, 0, 0, 1, 1, 0]>, <247, 9, 21, 12, 19, 0, 1, [0, 0, 0, 0, 0, 1, 1, 0]>, <248, 10, 22, 12, 19, 0, 1, [0, 0, 0, 0, 0, 1, 1, 0]>, <249, 11, 23, 12, 19, 0, 1, [0, 0, 0, 0, 0, 1, 1, 0]>, <250, 12, 24, 12, 19, 0, 1, [0, 0, 0, 0, 0, 1, 1, 0]>, <251, 13, 25, 12, 19, 0, 1, [0, 0, 0, 0, 0, 1, 1, 0]>, <252, 14, 26, 12, 19, 0, 1, [0, 0, 0, 0, 0, 1, 1, 0]>, <253, 15, 27, 12, 19, 0, 1, [0, 0, 0, 0, 0, 1, 1, 0]>, <254, 16, 28, 12, 19, 0, 1, [0, 0, 0, 0, 0, 1, 1, 0]>, <255, 17, 29, 12, 19, 0, 1, [0, 0, 0, 0, 0, 1, 1, 0]>, <256, 3, 12, 9, 20, 1, 0, [0, 0, 0, 0, 0, 0, 1, 1]>, <257, 4, 13, 9, 20, 1, 0, [0, 0, 0, 0, 0, 0, 1, 1]>, <258, 5, 14, 9, 20, 1, 0, [0, 0, 0, 0, 0, 0, 1, 1]>, <259, 11, 20, 9, 20, 1, 0, [0, 0, 0, 0, 0, 0, 1, 1]>, <260, 12, 21, 9, 20, 1, 0, [0, 0, 0, 0, 0, 0, 1, 1]>, <261, 15, 24, 9, 20, 1, 0, [0, 0, 0, 0, 0, 0, 1, 1]>, <262, 16, 25, 9, 20, 1, 0, [0, 0, 0, 0, 0, 0, 1, 1]>, <263, 17, 26, 9, 20, 1, 0, [0, 0, 0, 0, 0, 0, 1, 1]>, <264, 18, 27, 9, 20, 1, 0, [0, 0, 0, 0, 0, 0, 1, 1]>, <265, 19, 28, 9, 20, 1, 0, [0, 0, 0, 0, 0, 0, 1, 1]>, <266, 20, 29, 9, 20, 1, 0, [0, 0, 0, 0, 0, 0, 1, 1]>, <267, 2, 12, 10, 21, 0, 0, [0, 0, 1, 1, 0, 0, 0, 0]>, <268, 3, 13, 10, 21, 0, 0, [0, 0, 1, 1, 0, 0, 0, 0]>, <269, 4, 14, 10, 21, 0, 0, [0, 0, 1, 1, 0, 0, 0, 0]>, <270, 5, 15, 10, 21, 0, 0, [0, 0, 1, 1, 0, 0, 0, 0]>, <271, 10, 20, 10, 21, 0, 0, [0, 0, 1, 1, 0, 0, 0, 0]>, <272, 11, 21, 10, 21, 0, 0, [0, 0, 1, 1, 0, 0, 0, 0]>, <273, 12, 22, 10, 21, 0, 0, [0, 0, 1, 1, 0, 0, 0, 0]>, <274, 14, 24, 10, 21, 0, 0, [0, 0, 1, 1, 0, 0, 0, 0]>, <275, 15, 25, 10, 21, 0, 0, [0, 0, 1, 1, 0, 0, 0, 0]>, <276, 16, 26, 10, 21, 0, 0, [0, 0, 1, 1, 0, 0, 0, 0]>, <277, 17, 27, 10, 21, 0, 0, [0, 0, 1, 1, 0, 0, 0, 0]>, <278, 18, 28, 10, 21, 0, 0, [0, 0, 1, 1, 0, 0, 0, 0]>, <279, 19, 29, 10, 21, 0, 0, [0, 0, 1, 1, 0, 0, 0, 0]>};
